142 300 14 42 17 31 30 31 27 47 44 25 49 45 19 33 10 46 45 43 45 13 24 47 37 32 21 10 43 10 12 23 31 16 15 41 39 37 23 16 33 18 33 33 12 43 17 15 38 12 48 32 17 24 30 44 46 41 47 38 43 10 11 25 19 18 15 48 45 31 15 30 39 39 14 44 33 24 49 20 28 48 44 35 21 23 29 16 15 27 45 50 27 48 24 36 15 32 36 11 12 41 31 43 29 38 36 11 11 36 23 29 34 16 15 45 31 34 13 38 12 48 37 30 45 11 17 50 35 43 12 37 34 34 31 14 23 19 18 26 47 31 45 30 